DATASET = "thpack7";
INSTANCE = "008";

WIDTH = 233;
HEIGHT = 220;
LENGTH = 587;

NO_OF_SHAPES = 20;
size = [|
  75,58,57 |
  57,37,30 |
  79,74,35 |
  104,99,74 |
  55,46,31 |
  99,98,33 |
  90,85,59 |
  115,74,44 |
  107,67,21 |
  81,76,55 |
  118,84,27 |
  67,60,38 |
  78,48,46 |
  67,53,49 |
  74,43,38 |
  89,81,62 |
  95,54,28 |
  72,72,51 |
  93,72,35 |
  40,33,23 |
|];

verticality = [|
  1,1,1 |
  1,1,1 |
  0,0,1 |
  1,1,1 |
  1,1,1 |
  0,0,1 |
  1,1,1 |
  0,1,1 |
  0,0,1 |
  1,1,1 |
  0,0,1 |
  1,1,1 |
  1,1,1 |
  1,1,1 |
  1,1,1 |
  1,1,1 |
  0,1,1 |
  1,1,1 |
  0,0,1 |
  1,1,1 |
|];

box_count = [
  3,
  5,
  4,
  6,
  9,
  6,
  7,
  4,
  6,
  9,
  9,
  6,
  8,
  3,
  4,
  5,
  5,
  8,
  6,
  6,
];
